\ENCODING=ISO-8859-1
\Problem name: b-ball.mps

Maximize
 obj: 1 x12              + 0 x1               + 0 x2               + 0 x3               + 0 x4               + 0 x5               + 0 x6               + 0 x7               + 0 x8               + 0 x9               + 0 x10              + 0 x11              + 0 x13              + 0 x14              + 0 x15              + 0 x16              + 0 x17              + 0 x18              + 0 x19              + 0 x20              + 0 x21              + 0 x22              + 0 x23              + 0 x24              + 0 x25              + 0 x26              + 0 x27              + 0 x28              + 0 x29              + 0 x30              + 0 x31              + 0 x32              + 0 x33              + 0 x34              + 0 x35              + 0 x36              + 0 x37              + 0 x38              + 0 x39              + 0 x40              + 0 x41              + 0 x42              + 0 x43              + 0 x44              + 0 x45              + 0 x46              + 0 x47              + 0 x48              + 0 x49              + 0 x50              + 0 x51              + 0 x52              + 0 x53              + 0 x54              + 0 x55              + 0 x56              + 0 x57              + 0 x58              + 0 x59              + 0 x60              + 0 x61              + 0 x62              + 0 x63              + 0 x64              + 0 x65              + 0 x66              + 0 x67              + 0 x68              + 0 x69              + 0 x70              + 0 x71              + 0 x72              + 0 x73              + 0 x74              + 0 x75              + 0 x76              + 0 x77              + 0 x78              + 0 x79              + 0 x80              + 0 x81              + 0 x82              + 0 x83              + 0 x84              + 0 x85              + 0 x86              + 0 x87              + 0 x88              + 0 x89              + 0 x90              + 0 x91              + 0 x92              + 0 x93              + 0 x94              + 0 x95              + 0 x96              + 0 x97              + 0 x98              + 0 x99              + 0 x100
Subject To
 c1:  x12 - x1 <= 0
 c2:  x12 - x2 <= 0
 c3:  x12 - x3 <= 0
 c4:  x12 - x4 <= 0
 c5:  x12 - x5 <= 0
 c6:  x12 - x6 <= 0
 c7:  x12 - x7 <= 0
 c8:  x12 - x8 <= 0
 c9:  x12 - x9 <= 0
 c10: x12 - x10 <= 0
 c11: x12 - x11 <= 0
 c12: 2 x1 - x13 - x14 - x15 - x16 - x17 - x18 - x19 - x20  = 0
 c13: 2 x2 - x21 - x22 - x23 - x24 - x25 - x26 - x27 - x28  = 0
 c14: 2 x3 - x29 - x30 - x31 - x32 - x33 - x34 - x35 - x36  = 0
 c15: 2 x4 - x37 - x38 - x39 - x40 - x41 - x42 - x43 - x44  = 0
 c16: 2 x5 - x45 - x46 - x47 - x48 - x49 - x50 - x51 - x52  = 0
 c17: 2 x6 - x53 - x54 - x55 - x56 - x57 - x58 - x59 - x60  = 0
 c18: 2 x7 - x61 - x62 - x63 - x64 - x65 - x66 - x67 - x68  = 0
 c19: 2 x8 - x69 - x70 - x71 - x72 - x73 - x74 - x75 - x76  = 0
 c20: 2 x9 - x77 - x78 - x79 - x80 - x81 - x82 - x83 - x84  = 0
 c21: 2 x10 - x85 - x86 - x87 - x88 - x89 - x90 - x91 - x92  = 0
 c22: 2 x11 - x93 - x94 - x95 - x96 - x97 - x98 - x99 - x100  = 0
 c23: x13 + x21 + x29 + x37 + x45 + x53 + x61 + x69 + x77 + x85 + x93  = 5
 c24: x14 + x22 + x30 + x38 + x46 + x54 + x62 + x70 + x78 + x86 + x94  = 5
 c25: x15 + x23 + x31 + x39 + x47 + x55 + x63 + x71 + x79 + x87 + x95  = 5
 c26: x16 + x24 + x32 + x40 + x48 + x56 + x64 + x72 + x80 + x88 + x96  = 5
 c27: x17 + x25 + x33 + x41 + x49 + x57 + x65 + x73 + x81 + x89 + x97  = 5
 c28: x18 + x26 + x34 + x42 + x50 + x58 + x66 + x74 + x82 + x90 + x98  = 5
 c29: x19 + x27 + x35 + x43 + x51 + x59 + x67 + x75 + x83 + x91 + x99  = 5
 c30: x20 + x28 + x36 + x44 + x52 + x60 + x68 + x76 + x84 + x92 + x100  = 5
Bounds
 0 <= x13 <= 1
 0 <= x14 <= 1
 0 <= x15 <= 1
 0 <= x16 <= 1
 0 <= x17 <= 1
 0 <= x18 <= 1
 0 <= x19 <= 1
 0 <= x20 <= 1
 0 <= x21 <= 1
 0 <= x22 <= 1
 0 <= x23 <= 1
 0 <= x24 <= 1
 0 <= x25 <= 1
 0 <= x26 <= 1
 0 <= x27 <= 1
 0 <= x28 <= 1
 0 <= x29 <= 1
 0 <= x30 <= 1
 0 <= x31 <= 1
 0 <= x32 <= 1
 0 <= x33 <= 1
 0 <= x34 <= 1
 0 <= x35 <= 1
 0 <= x36 <= 1
 0 <= x37 <= 1
 0 <= x38 <= 1
 0 <= x39 <= 1
 0 <= x40 <= 1
 0 <= x41 <= 1
 0 <= x42 <= 1
 0 <= x43 <= 1
 0 <= x44 <= 1
 0 <= x45 <= 1
 0 <= x46 <= 1
 0 <= x47 <= 1
 0 <= x48 <= 1
 0 <= x49 <= 1
 0 <= x50 <= 1
 0 <= x51 <= 1
 0 <= x52 <= 1
 0 <= x53 <= 1
 0 <= x54 <= 1
 0 <= x55 <= 1
 0 <= x56 <= 1
 0 <= x57 <= 1
 0 <= x58 <= 1
 0 <= x59 <= 1
 0 <= x60 <= 1
 0 <= x61 <= 1
 0 <= x62 <= 1
 0 <= x63 <= 1
 0 <= x64 <= 1
 0 <= x65 <= 1
 0 <= x66 <= 1
 0 <= x67 <= 1
 0 <= x68 <= 1
 0 <= x69 <= 1
 0 <= x70 <= 1
 0 <= x71 <= 1
 0 <= x72 <= 1
 0 <= x73 <= 1
 0 <= x74 <= 1
 0 <= x75 <= 1
 0 <= x76 <= 1
 0 <= x77 <= 1
 0 <= x78 <= 1
 0 <= x79 <= 1
 0 <= x80 <= 1
 0 <= x81 <= 1
 0 <= x82 <= 1
 0 <= x83 <= 1
 0 <= x84 <= 1
 0 <= x85 <= 1
 0 <= x86 <= 1
 0 <= x87 <= 1
 0 <= x88 <= 1
 0 <= x89 <= 1
 0 <= x90 <= 1
 0 <= x91 <= 1
 0 <= x92 <= 1
 0 <= x93 <= 1
 0 <= x94 <= 1
 0 <= x95 <= 1
 0 <= x96 <= 1
 0 <= x97 <= 1
 0 <= x98 <= 1
 0 <= x99 <= 1
 0 <= x100 <= 1
Binaries
 x13  x14  x15  x16  x17  x18  x19  x20  x21  x22  x23  x24  x25  x26  x27 
 x28  x29  x30  x31  x32  x33  x34  x35  x36  x37  x38  x39  x40  x41  x42 
 x43  x44  x45  x46  x47  x48  x49  x50  x51  x52  x53  x54  x55  x56  x57 
 x58  x59  x60  x61  x62  x63  x64  x65  x66  x67  x68  x69  x70  x71  x72 
 x73  x74  x75  x76  x77  x78  x79  x80  x81  x82  x83  x84  x85  x86  x87 
 x88  x89  x90  x91  x92  x93  x94  x95  x96  x97  x98  x99  x100 
End
